benchmarks/VRPTW/TSPTW/solution/n40w20.004.txt.solution
1 8 38 12 37 6 21 36 40 23 33 29 25 20 18 26 34 13 17 2 3 39 32 15 31 28 4 16 22 30 14 11 35 27 7 19 9 10 41 5 24 
404
